%nprocs=32
%chk=C60-full.chk
# b3lyp/6-311G pop=full

Title Card Required

0 1
 C                 -3.46922100   -0.36329700    0.69459300
 C                 -3.46579100    0.76641900   -0.22713400
 C                 -3.14039800    0.57046500   -1.56899400
 C                 -2.80406200   -0.76412100   -2.05046900
 C                 -2.80763500   -1.84493900   -1.16883400
 C                 -3.14751300   -1.64009400    0.23427900
 C                 -2.95450600    0.10060200    1.97759900
 C                 -2.63298600    1.51714400    1.84887300
 C                 -2.94894900    1.92868600    0.48611700
 C                 -2.12905700    2.84408300   -0.17360200
 C                 -2.28361100    1.52765600   -2.25878400
 C                 -1.73868800   -0.63185700   -3.03719400
 C                 -0.72357000   -1.58587300   -3.09969900
 C                 -0.72710400   -2.71564800   -2.17793400
 C                 -1.74616200   -2.84257300   -1.23408700
 C                 -1.42989400   -3.25400600    0.12849800
 C                 -2.29604000   -2.51096200    1.03587800
 C                 -1.80372600   -2.06732100    2.26308700
 C                 -2.14032400   -0.73276800    2.74429800
 C                 -1.51058200    2.03814500    2.49226500
 C                 -0.65956100    1.16703900    3.29411300
 C                 -0.96738500   -0.18757600    3.41758600
 C                  0.09422200   -1.18483600    3.35171600
 C                 -0.42272400   -2.34650700    2.63838000
 C                  0.40573000   -3.05759500    1.77072400
 C                 -0.10901000   -3.52156000    0.48765600
 C                  0.95604300   -3.38915100   -0.49937700
 C                  0.65370000   -2.99514200   -1.80259300
 C                 -1.41719900    0.78441800   -3.16615300
 C                  2.95450600   -0.10059800   -1.97759800
 C                  2.14032000    0.73277000   -2.74429500
 C                  1.80372500    2.06732100   -2.26308900
 C                  2.29603900    2.51096000   -1.03587800
 C                  3.14751400    1.64009600   -0.23428100
 C                  3.46578900   -0.76641700    0.22713400
 C                  2.94895000   -1.92868500   -0.48611900
 C                  2.63298800   -1.51714400   -1.84887200
 C                  1.51058600   -2.03814800   -2.49226400
 C                  0.65956200   -1.16703900   -3.29411500
 C                  0.96738200    0.18757800   -3.41758500
 C                  0.42272200    2.34650900   -2.63838100
 C                 -0.40573200    3.05759300   -1.77072300
 C                  0.10900800    3.52156000   -0.48765500
 C                  1.42989400    3.25400600   -0.12849600
 C                  1.74616500    2.84257700    1.23408800
 C                  2.80763300    1.84493700    1.16883200
 C                  2.80406200    0.76412000    2.05047000
 C                  3.14039900   -0.57046600    1.56899400
 C                  2.12905400   -2.84408100    0.17360100
 C                  1.78883000   -2.63893200    1.57655400
 C                  2.28360900   -1.52765800    2.25878500
 C                  1.41719700   -0.78442000    3.16614900
 C                  1.73868900    0.63185500    3.03719300
 C                  0.72357400    1.58587200    3.09969800
 C                  0.72710700    2.71565000    2.17793600
 C                 -0.65369600    2.99514200    1.80259400
 C                 -0.95604100    3.38914800    0.49937700
 C                 -0.09422300    1.18483500   -3.35171800
 C                 -1.78883100    2.63893000   -1.57655200
 C                  3.46922300    0.36330000   -0.69459400

